Cost: 938
0-40-39-12-26-0
0-21-28-2-6-0
0-43-41-42-22-0
0-16-49-24-32-0
0-37-20-57-13-0
0-53-11-59-54-0
0-4-52-34-46-0
0-30-48-29-45-0
0-8-19-14-35-0
0-51-3-44-17-0
0-9-25-55-50-0
0-7-38-10-58-0
0-33-1-56-23-0
0-27-15-36-47-0
Cost: 938
0-40-39-12-26-0
0-34-46-52-4-0
0-17-44-3-51-0
0-43-41-42-22-0
0-13-57-20-37-0
0-7-38-10-58-0
0-53-11-59-54-0
0-16-49-24-32-0
0-47-36-15-27-0
0-33-1-56-23-0
0-21-28-2-6-0
0-9-25-55-50-0
0-45-29-48-30-0
0-8-19-14-35-0
Cost: 938
0-40-39-12-26-0
0-21-28-2-6-0
0-43-41-42-22-0
0-16-49-24-32-0
0-37-20-57-13-0
0-53-11-59-54-0
0-4-52-34-46-0
0-30-48-29-45-0
0-8-19-14-35-0
0-51-3-44-17-0
0-9-25-55-50-0
0-7-38-10-58-0
0-33-1-56-23-0
0-27-15-36-47-0
Cost: 938
0-30-48-29-45-0
0-32-24-49-16-0
0-22-42-41-43-0
0-2-28-21-47-0
0-54-59-11-53-0
0-51-3-44-17-0
0-13-57-20-5-0
0-50-55-25-9-0
0-36-37-15-27-0
0-23-56-33-6-0
0-26-12-39-40-0
0-35-14-19-8-0
0-58-10-38-7-0
0-46-34-52-4-0
Cost: 938
0-47-21-28-2-0
0-7-38-10-58-0
0-32-24-49-16-0
0-4-52-34-46-0
0-35-14-19-8-0
0-51-3-44-17-0
0-23-56-33-6-0
0-26-12-39-40-0
0-22-42-41-43-0
0-45-29-48-30-0
0-50-55-25-9-0
0-27-15-37-36-0
0-54-59-11-53-0
0-5-20-57-13-0
Cost: 938
0-21-28-2-6-0
0-22-42-41-43-0
0-58-10-38-7-0
0-46-34-52-4-0
0-45-29-48-30-0
0-54-59-11-53-0
0-33-1-56-23-0
0-47-36-15-27-0
0-37-20-57-13-0
0-51-3-44-32-0
0-40-39-12-26-0
0-8-19-14-35-0
0-16-49-24-17-0
0-50-55-25-9-0
Cost: 938
0-45-29-48-30-0
0-4-52-34-46-0
0-58-10-38-7-0
0-47-21-28-2-0
0-32-44-3-51-0
0-9-25-55-50-0
0-23-56-33-6-0
0-43-41-42-22-0
0-16-49-24-17-0
0-35-14-19-8-0
0-53-11-59-54-0
0-5-20-57-13-0
0-27-15-37-36-0
0-40-39-12-26-0
Cost: 938
0-35-14-19-8-0
0-45-29-48-30-0
0-2-28-21-47-0
0-9-25-55-50-0
0-17-24-49-16-0
0-5-20-57-13-0
0-7-38-10-58-0
0-6-33-56-23-0
0-4-52-34-46-0
0-51-3-44-32-0
0-43-41-42-22-0
0-40-39-12-26-0
0-27-15-37-36-0
0-54-59-11-53-0
Cost: 938
0-4-52-34-46-0
0-45-29-48-30-0
0-23-56-33-6-0
0-17-24-49-16-0
0-7-38-10-58-0
0-22-42-41-43-0
0-32-50-55-25-0
0-54-59-11-53-0
0-51-3-44-26-0
0-13-57-20-5-0
0-35-14-19-8-0
0-36-37-15-27-0
0-47-21-28-2-0
0-12-39-9-40-0
Cost: 938
0-4-52-34-46-0
0-45-29-48-30-0
0-23-56-33-6-0
0-17-24-49-16-0
0-7-38-10-58-0
0-22-42-41-43-0
0-32-50-55-25-0
0-54-59-11-53-0
0-51-3-44-26-0
0-13-57-20-5-0
0-35-14-19-8-0
0-36-37-15-27-0
0-47-21-28-2-0
0-12-39-9-40-0
Cost: 938
0-30-48-29-45-0
0-22-42-41-43-0
0-51-3-44-32-0
0-35-14-19-8-0
0-50-55-25-9-0
0-54-59-11-53-0
0-40-39-12-26-0
0-46-34-52-4-0
0-47-36-15-27-0
0-7-38-10-58-0
0-13-57-20-37-0
0-23-56-1-33-0
0-17-24-49-16-0
0-21-28-2-6-0
Cost: 938
0-23-56-33-6-0
0-5-20-57-13-0
0-51-3-44-17-0
0-7-38-10-58-0
0-9-25-55-50-0
0-54-59-11-53-0
0-32-24-49-16-0
0-8-19-14-35-0
0-22-42-41-43-0
0-30-48-29-45-0
0-27-15-37-36-0
0-47-21-28-2-0
0-40-39-12-26-0
0-46-34-52-4-0
Cost: 941
0-51-3-44-26-0
0-58-10-38-7-0
0-17-24-49-16-0
0-52-13-57-4-0
0-43-41-42-22-0
0-8-19-14-35-0
0-48-21-28-2-0
0-5-37-20-15-0
0-40-9-39-12-0
0-29-36-47-30-0
0-45-27-46-34-0
0-25-55-50-32-0
0-54-59-11-53-0
0-23-56-33-6-0
Cost: 938
0-6-2-28-21-0
0-22-42-41-43-0
0-26-12-39-40-0
0-58-10-38-7-0
0-32-24-49-16-0
0-53-11-59-54-0
0-50-55-25-9-0
0-8-19-14-35-0
0-23-56-1-33-0
0-45-29-48-30-0
0-13-57-20-37-0
0-47-36-15-27-0
0-51-3-44-17-0
0-4-52-34-46-0
Cost: 938
0-6-2-28-21-0
0-22-42-41-43-0
0-26-12-39-40-0
0-58-10-38-7-0
0-32-24-49-16-0
0-53-11-59-54-0
0-50-55-25-9-0
0-8-19-14-35-0
0-23-56-1-33-0
0-45-29-48-30-0
0-13-57-20-37-0
0-47-36-15-27-0
0-51-3-44-17-0
0-4-52-34-46-0
Cost: 938
0-32-44-3-51-0
0-33-1-56-23-0
0-6-2-28-21-0
0-46-34-52-4-0
0-26-12-39-40-0
0-8-19-14-35-0
0-53-11-59-54-0
0-30-48-29-45-0
0-27-15-36-47-0
0-50-55-25-9-0
0-13-57-20-37-0
0-43-41-42-22-0
0-58-10-38-7-0
0-17-24-49-16-0
Cost: 938
0-46-34-52-4-0
0-17-44-3-51-0
0-53-11-59-54-0
0-45-29-48-30-0
0-40-39-12-26-0
0-22-42-41-43-0
0-23-56-33-6-0
0-7-38-10-58-0
0-9-25-55-50-0
0-13-57-20-5-0
0-8-19-14-35-0
0-2-28-21-47-0
0-27-15-37-36-0
0-16-49-24-32-0
Cost: 938
0-30-48-29-45-0
0-58-10-38-7-0
0-37-20-57-13-0
0-27-15-36-47-0
0-12-39-9-40-0
0-43-41-42-22-0
0-6-2-28-21-0
0-32-50-55-25-0
0-51-3-44-26-0
0-17-24-49-16-0
0-8-19-14-35-0
0-33-1-56-23-0
0-54-59-11-53-0
0-46-34-52-4-0
Cost: 938
0-2-28-21-47-0
0-58-10-38-7-0
0-35-14-19-8-0
0-46-34-52-4-0
0-53-11-59-54-0
0-43-41-42-22-0
0-13-57-20-5-0
0-50-55-25-9-0
0-51-3-44-32-0
0-45-29-48-30-0
0-17-24-49-16-0
0-36-37-15-27-0
0-26-12-39-40-0
0-6-33-56-23-0
Cost: 938
0-26-44-3-51-0
0-30-48-29-45-0
0-46-34-52-4-0
0-27-15-36-47-0
0-22-42-41-43-0
0-16-49-24-17-0
0-54-59-11-53-0
0-32-50-55-25-0
0-7-38-10-58-0
0-13-57-20-37-0
0-33-1-56-23-0
0-35-14-19-8-0
0-40-9-39-12-0
0-21-28-2-6-0
Cost: 938
0-26-44-3-51-0
0-30-48-29-45-0
0-46-34-52-4-0
0-27-15-36-47-0
0-22-42-41-43-0
0-16-49-24-17-0
0-54-59-11-53-0
0-32-50-55-25-0
0-7-38-10-58-0
0-13-57-20-37-0
0-33-1-56-23-0
0-35-14-19-8-0
0-40-9-39-12-0
0-21-28-2-6-0
Cost: 938
0-46-34-52-4-0
0-53-11-59-54-0
0-8-19-14-35-0
0-17-44-3-51-0
0-30-48-29-45-0
0-27-15-36-47-0
0-50-55-25-9-0
0-7-38-10-58-0
0-32-24-49-16-0
0-40-39-12-26-0
0-21-28-2-6-0
0-23-56-1-33-0
0-22-42-41-43-0
0-37-20-57-13-0
Cost: 938
0-26-44-3-51-0
0-30-48-29-45-0
0-46-34-52-4-0
0-27-15-36-47-0
0-22-42-41-43-0
0-16-49-24-17-0
0-54-59-11-53-0
0-32-50-55-25-0
0-7-38-10-58-0
0-13-57-20-37-0
0-33-1-56-23-0
0-35-14-19-8-0
0-40-9-39-12-0
0-21-28-2-6-0
Cost: 938
0-46-34-52-4-0
0-17-44-3-51-0
0-53-11-59-54-0
0-45-29-48-30-0
0-40-39-12-26-0
0-22-42-41-43-0
0-23-56-33-6-0
0-7-38-10-58-0
0-9-25-55-50-0
0-13-57-20-5-0
0-8-19-14-35-0
0-2-28-21-47-0
0-27-15-37-36-0
0-16-49-24-32-0
Cost: 938
0-12-39-9-40-0
0-6-33-56-23-0
0-46-34-52-4-0
0-36-37-15-27-0
0-8-19-14-35-0
0-45-29-48-30-0
0-51-3-44-26-0
0-47-21-28-2-0
0-53-11-59-54-0
0-17-24-49-16-0
0-25-55-50-32-0
0-5-20-57-13-0
0-22-42-41-43-0
0-7-38-10-58-0
Cost: 0
Cost: 0
Cost: 967
0-42-41-43-33-0
0-35-8-46-34-0
0-58-10-38-7-0
0-26-24-49-16-0
0-12-39-9-40-0
0-48-29-45-27-0
0-17-44-3-51-0
0-32-50-55-25-0
0-2-22-28-21-0
0-15-36-47-30-0
0-13-57-20-37-0
0-6-23-56-1-0
0-4-53-14-19-0
0-52-54-59-11-0
Cost: 938
0-8-19-14-35-0
0-33-1-56-23-0
0-4-52-34-46-0
0-6-2-28-21-0
0-45-29-48-30-0
0-51-3-44-17-0
0-22-42-41-43-0
0-32-24-49-16-0
0-40-39-12-26-0
0-37-20-57-13-0
0-53-11-59-54-0
0-27-15-36-47-0
0-50-55-25-9-0
0-7-38-10-58-0
Cost: 938
0-58-10-38-7-0
0-6-2-28-21-0
0-46-34-52-4-0
0-37-20-57-13-0
0-26-12-39-40-0
0-17-44-3-51-0
0-23-56-1-33-0
0-54-59-11-53-0
0-22-42-41-43-0
0-16-49-24-32-0
0-9-25-55-50-0
0-47-36-15-27-0
0-45-29-48-30-0
0-8-19-14-35-0
